p edge 20 40
e 1 2
e 1 4
e 1 6
e 1 7
e 1 8
e 1 12
e 2 5
e 2 7
e 2 8
e 2 11
e 2 12
e 2 14
e 3 4
e 3 5
e 3 9
e 3 10
e 3 11
e 4 5
e 4 7
e 4 13
e 5 6
e 5 8
e 5 9
e 5 11
e 5 13
e 5 15
e 6 10
e 6 13
e 6 18
e 6 20
e 7 14
e 8 14
e 9 13
e 9 18
e 10 16
e 10 17
e 11 15
e 14 17
e 16 17
e 16 19
